Running for instance ./models/r112.txt
Generating routes...
Execution time:  0.1588699  minutes
Academic license - for non-commercial use only
Warning: constraint name "Cliente esta na rota" has a space
Optimize a model with 26 rows, 5000 columns and 29317 nonzeros
Variable types: 0 continuous, 5000 integer (0 binary)
Coefficient statistics:
  Matrix range     [1e+00, 1e+00]
  Objective range  [6e+01, 2e+02]
  Bounds range     [1e+00, 1e+00]
  RHS range        [1e+00, 2e+01]
Found heuristic solution: objective 1021.6715232
Presolve removed 0 rows and 1972 columns
Presolve time: 0.03s
Presolved: 26 rows, 3028 columns, 17870 nonzeros
Found heuristic solution: objective 763.6793841
Variable types: 0 continuous, 3028 integer (3028 binary)

Root relaxation: objective 4.326543e+02, 115 iterations, 0.00 seconds

    Nodes    |    Current Node    |     Objective Bounds      |     Work
 Expl Unexpl |  Obj  Depth IntInf | Incumbent    BestBd   Gap | It/Node Time

     0     0  432.65426    0   23  763.67938  432.65426  43.3%     -    0s
H    0     0                     495.1963838  432.65426  12.6%     -    0s
H    0     0                     453.2521695  432.65426  4.54%     -    0s
     0     0  438.04154    0   18  453.25217  438.04154  3.36%     -    0s
     0     0  438.04154    0   21  453.25217  438.04154  3.36%     -    0s
H    0     0                     438.6625614  438.04154  0.14%     -    0s
     0     0     cutoff    0       438.66256  438.66256  0.00%     -    0s

Cutting planes:
  Gomory: 1
  Clique: 3
  MIR: 2
  Zero half: 5

Explored 1 nodes (238 simplex iterations) in 0.09 seconds
Thread count was 8 (of 8 available processors)

Solution count 5: 438.663 453.252 495.196 ... 987.985

Optimal solution found (tolerance 1.00e-04)
Best objective 4.386625614497e+02, best bound 4.386625614497e+02, gap 0.0000%
6 5 17 16
18 7 8 19 11 10
2 15 21 22 23 4
12 25 24 3 9 20
Distance: 438.66256145
Execution time:  0.166096  minutes
